dimacs/3x3_1.cnf
p cnf 54 1638
-1 -2 0
-4 -5 0
-1 -3 0
-4 -6 0
-2 -3 0
-5 -6 0
1 2 3 0
4 5 6 0
-7 -8 0
-10 -11 0
-7 -9 0
-10 -12 0
-8 -9 0
-11 -12 0
7 8 9 0
10 11 12 0
-13 -14 0
-16 -17 0
-13 -15 0
-16 -18 0
-14 -15 0
-17 -18 0
13 14 15 0
16 17 18 0
-19 -20 0
-22 -23 0
-19 -21 0
-22 -24 0
-20 -21 0
-23 -24 0
19 20 21 0
22 23 24 0
-25 -26 0
-28 -29 0
-25 -27 0
-28 -30 0
-26 -27 0
-29 -30 0
25 26 27 0
28 29 30 0
-31 -32 0
-34 -35 0
-31 -33 0
-34 -36 0
-32 -33 0
-35 -36 0
31 32 33 0
34 35 36 0
-37 -38 0
-40 -41 0
-37 -39 0
-40 -42 0
-38 -39 0
-41 -42 0
37 38 39 0
40 41 42 0
-43 -44 0
-46 -47 0
-43 -45 0
-46 -48 0
-44 -45 0
-47 -48 0
43 44 45 0
46 47 48 0
-49 -50 0
-52 -53 0
-49 -51 0
-52 -54 0
-50 -51 0
-53 -54 0
49 50 51 0
52 53 54 0
-1 -7 -4 -10 0
-4 -10 -1 -7 0
-1 -7 -5 -11 0
-4 -10 -2 -8 0
-1 -7 -6 -12 0
-4 -10 -3 -9 0
-2 -8 -4 -10 0
-5 -11 -1 -7 0
-2 -8 -5 -11 0
-5 -11 -2 -8 0
-2 -8 -6 -12 0
-5 -11 -3 -9 0
-3 -9 -4 -10 0
-6 -12 -1 -7 0
-3 -9 -5 -11 0
-6 -12 -2 -8 0
-3 -9 -6 -12 0
-6 -12 -3 -9 0
-1 -13 -4 -16 0
-4 -16 -1 -13 0
-1 -13 -5 -17 0
-4 -16 -2 -14 0
-1 -13 -6 -18 0
-4 -16 -3 -15 0
-2 -14 -4 -16 0
-5 -17 -1 -13 0
-2 -14 -5 -17 0
-5 -17 -2 -14 0
-2 -14 -6 -18 0
-5 -17 -3 -15 0
-3 -15 -4 -16 0
-6 -18 -1 -13 0
-3 -15 -5 -17 0
-6 -18 -2 -14 0
-3 -15 -6 -18 0
-6 -18 -3 -15 0
-1 -19 -4 -22 0
-4 -22 -1 -19 0
-1 -19 -5 -23 0
-4 -22 -2 -20 0
-1 -19 -6 -24 0
-4 -22 -3 -21 0
-2 -20 -4 -22 0
-5 -23 -1 -19 0
-2 -20 -5 -23 0
-5 -23 -2 -20 0
-2 -20 -6 -24 0
-5 -23 -3 -21 0
-3 -21 -4 -22 0
-6 -24 -1 -19 0
-3 -21 -5 -23 0
-6 -24 -2 -20 0
-3 -21 -6 -24 0
-6 -24 -3 -21 0
-1 -25 -4 -28 0
-4 -28 -1 -25 0
-1 -25 -5 -29 0
-4 -28 -2 -26 0
-1 -25 -6 -30 0
-4 -28 -3 -27 0
-2 -26 -4 -28 0
-5 -29 -1 -25 0
-2 -26 -5 -29 0
-5 -29 -2 -26 0
-2 -26 -6 -30 0
-5 -29 -3 -27 0
-3 -27 -4 -28 0
-6 -30 -1 -25 0
-3 -27 -5 -29 0
-6 -30 -2 -26 0
-3 -27 -6 -30 0
-6 -30 -3 -27 0
-1 -31 -4 -34 0
-4 -34 -1 -31 0
-1 -31 -5 -35 0
-4 -34 -2 -32 0
-1 -31 -6 -36 0
-4 -34 -3 -33 0
-2 -32 -4 -34 0
-5 -35 -1 -31 0
-2 -32 -5 -35 0
-5 -35 -2 -32 0
-2 -32 -6 -36 0
-5 -35 -3 -33 0
-3 -33 -4 -34 0
-6 -36 -1 -31 0
-3 -33 -5 -35 0
-6 -36 -2 -32 0
-3 -33 -6 -36 0
-6 -36 -3 -33 0
-1 -37 -4 -40 0
-4 -40 -1 -37 0
-1 -37 -5 -41 0
-4 -40 -2 -38 0
-1 -37 -6 -42 0
-4 -40 -3 -39 0
-2 -38 -4 -40 0
-5 -41 -1 -37 0
-2 -38 -5 -41 0
-5 -41 -2 -38 0
-2 -38 -6 -42 0
-5 -41 -3 -39 0
-3 -39 -4 -40 0
-6 -42 -1 -37 0
-3 -39 -5 -41 0
-6 -42 -2 -38 0
-3 -39 -6 -42 0
-6 -42 -3 -39 0
-1 -43 -4 -46 0
-4 -46 -1 -43 0
-1 -43 -5 -47 0
-4 -46 -2 -44 0
-1 -43 -6 -48 0
-4 -46 -3 -45 0
-2 -44 -4 -46 0
-5 -47 -1 -43 0
-2 -44 -5 -47 0
-5 -47 -2 -44 0
-2 -44 -6 -48 0
-5 -47 -3 -45 0
-3 -45 -4 -46 0
-6 -48 -1 -43 0
-3 -45 -5 -47 0
-6 -48 -2 -44 0
-3 -45 -6 -48 0
-6 -48 -3 -45 0
-1 -49 -4 -52 0
-4 -52 -1 -49 0
-1 -49 -5 -53 0
-4 -52 -2 -50 0
-1 -49 -6 -54 0
-4 -52 -3 -51 0
-2 -50 -4 -52 0
-5 -53 -1 -49 0
-2 -50 -5 -53 0
-5 -53 -2 -50 0
-2 -50 -6 -54 0
-5 -53 -3 -51 0
-3 -51 -4 -52 0
-6 -54 -1 -49 0
-3 -51 -5 -53 0
-6 -54 -2 -50 0
-3 -51 -6 -54 0
-6 -54 -3 -51 0
-7 -13 -10 -16 0
-10 -16 -7 -13 0
-7 -13 -11 -17 0
-10 -16 -8 -14 0
-7 -13 -12 -18 0
-10 -16 -9 -15 0
-8 -14 -10 -16 0
-11 -17 -7 -13 0
-8 -14 -11 -17 0
-11 -17 -8 -14 0
-8 -14 -12 -18 0
-11 -17 -9 -15 0
-9 -15 -10 -16 0
-12 -18 -7 -13 0
-9 -15 -11 -17 0
-12 -18 -8 -14 0
-9 -15 -12 -18 0
-12 -18 -9 -15 0
-7 -19 -10 -22 0
-10 -22 -7 -19 0
-7 -19 -11 -23 0
-10 -22 -8 -20 0
-7 -19 -12 -24 0
-10 -22 -9 -21 0
-8 -20 -10 -22 0
-11 -23 -7 -19 0
-8 -20 -11 -23 0
-11 -23 -8 -20 0
-8 -20 -12 -24 0
-11 -23 -9 -21 0
-9 -21 -10 -22 0
-12 -24 -7 -19 0
-9 -21 -11 -23 0
-12 -24 -8 -20 0
-9 -21 -12 -24 0
-12 -24 -9 -21 0
-7 -25 -10 -28 0
-10 -28 -7 -25 0
-7 -25 -11 -29 0
-10 -28 -8 -26 0
-7 -25 -12 -30 0
-10 -28 -9 -27 0
-8 -26 -10 -28 0
-11 -29 -7 -25 0
-8 -26 -11 -29 0
-11 -29 -8 -26 0
-8 -26 -12 -30 0
-11 -29 -9 -27 0
-9 -27 -10 -28 0
-12 -30 -7 -25 0
-9 -27 -11 -29 0
-12 -30 -8 -26 0
-9 -27 -12 -30 0
-12 -30 -9 -27 0
-7 -31 -10 -34 0
-10 -34 -7 -31 0
-7 -31 -11 -35 0
-10 -34 -8 -32 0
-7 -31 -12 -36 0
-10 -34 -9 -33 0
-8 -32 -10 -34 0
-11 -35 -7 -31 0
-8 -32 -11 -35 0
-11 -35 -8 -32 0
-8 -32 -12 -36 0
-11 -35 -9 -33 0
-9 -33 -10 -34 0
-12 -36 -7 -31 0
-9 -33 -11 -35 0
-12 -36 -8 -32 0
-9 -33 -12 -36 0
-12 -36 -9 -33 0
-7 -37 -10 -40 0
-10 -40 -7 -37 0
-7 -37 -11 -41 0
-10 -40 -8 -38 0
-7 -37 -12 -42 0
-10 -40 -9 -39 0
-8 -38 -10 -40 0
-11 -41 -7 -37 0
-8 -38 -11 -41 0
-11 -41 -8 -38 0
-8 -38 -12 -42 0
-11 -41 -9 -39 0
-9 -39 -10 -40 0
-12 -42 -7 -37 0
-9 -39 -11 -41 0
-12 -42 -8 -38 0
-9 -39 -12 -42 0
-12 -42 -9 -39 0
-7 -43 -10 -46 0
-10 -46 -7 -43 0
-7 -43 -11 -47 0
-10 -46 -8 -44 0
-7 -43 -12 -48 0
-10 -46 -9 -45 0
-8 -44 -10 -46 0
-11 -47 -7 -43 0
-8 -44 -11 -47 0
-11 -47 -8 -44 0
-8 -44 -12 -48 0
-11 -47 -9 -45 0
-9 -45 -10 -46 0
-12 -48 -7 -43 0
-9 -45 -11 -47 0
-12 -48 -8 -44 0
-9 -45 -12 -48 0
-12 -48 -9 -45 0
-7 -49 -10 -52 0
-10 -52 -7 -49 0
-7 -49 -11 -53 0
-10 -52 -8 -50 0
-7 -49 -12 -54 0
-10 -52 -9 -51 0
-8 -50 -10 -52 0
-11 -53 -7 -49 0
-8 -50 -11 -53 0
-11 -53 -8 -50 0
-8 -50 -12 -54 0
-11 -53 -9 -51 0
-9 -51 -10 -52 0
-12 -54 -7 -49 0
-9 -51 -11 -53 0
-12 -54 -8 -50 0
-9 -51 -12 -54 0
-12 -54 -9 -51 0
-13 -19 -16 -22 0
-16 -22 -13 -19 0
-13 -19 -17 -23 0
-16 -22 -14 -20 0
-13 -19 -18 -24 0
-16 -22 -15 -21 0
-14 -20 -16 -22 0
-17 -23 -13 -19 0
-14 -20 -17 -23 0
-17 -23 -14 -20 0
-14 -20 -18 -24 0
-17 -23 -15 -21 0
-15 -21 -16 -22 0
-18 -24 -13 -19 0
-15 -21 -17 -23 0
-18 -24 -14 -20 0
-15 -21 -18 -24 0
-18 -24 -15 -21 0
-13 -25 -16 -28 0
-16 -28 -13 -25 0
-13 -25 -17 -29 0
-16 -28 -14 -26 0
-13 -25 -18 -30 0
-16 -28 -15 -27 0
-14 -26 -16 -28 0
-17 -29 -13 -25 0
-14 -26 -17 -29 0
-17 -29 -14 -26 0
-14 -26 -18 -30 0
-17 -29 -15 -27 0
-15 -27 -16 -28 0
-18 -30 -13 -25 0
-15 -27 -17 -29 0
-18 -30 -14 -26 0
-15 -27 -18 -30 0
-18 -30 -15 -27 0
-13 -31 -16 -34 0
-16 -34 -13 -31 0
-13 -31 -17 -35 0
-16 -34 -14 -32 0
-13 -31 -18 -36 0
-16 -34 -15 -33 0
-14 -32 -16 -34 0
-17 -35 -13 -31 0
-14 -32 -17 -35 0
-17 -35 -14 -32 0
-14 -32 -18 -36 0
-17 -35 -15 -33 0
-15 -33 -16 -34 0
-18 -36 -13 -31 0
-15 -33 -17 -35 0
-18 -36 -14 -32 0
-15 -33 -18 -36 0
-18 -36 -15 -33 0
-13 -37 -16 -40 0
-16 -40 -13 -37 0
-13 -37 -17 -41 0
-16 -40 -14 -38 0
-13 -37 -18 -42 0
-16 -40 -15 -39 0
-14 -38 -16 -40 0
-17 -41 -13 -37 0
-14 -38 -17 -41 0
-17 -41 -14 -38 0
-14 -38 -18 -42 0
-17 -41 -15 -39 0
-15 -39 -16 -40 0
-18 -42 -13 -37 0
-15 -39 -17 -41 0
-18 -42 -14 -38 0
-15 -39 -18 -42 0
-18 -42 -15 -39 0
-13 -43 -16 -46 0
-16 -46 -13 -43 0
-13 -43 -17 -47 0
-16 -46 -14 -44 0
-13 -43 -18 -48 0
-16 -46 -15 -45 0
-14 -44 -16 -46 0
-17 -47 -13 -43 0
-14 -44 -17 -47 0
-17 -47 -14 -44 0
-14 -44 -18 -48 0
-17 -47 -15 -45 0
-15 -45 -16 -46 0
-18 -48 -13 -43 0
-15 -45 -17 -47 0
-18 -48 -14 -44 0
-15 -45 -18 -48 0
-18 -48 -15 -45 0
-13 -49 -16 -52 0
-16 -52 -13 -49 0
-13 -49 -17 -53 0
-16 -52 -14 -50 0
-13 -49 -18 -54 0
-16 -52 -15 -51 0
-14 -50 -16 -52 0
-17 -53 -13 -49 0
-14 -50 -17 -53 0
-17 -53 -14 -50 0
-14 -50 -18 -54 0
-17 -53 -15 -51 0
-15 -51 -16 -52 0
-18 -54 -13 -49 0
-15 -51 -17 -53 0
-18 -54 -14 -50 0
-15 -51 -18 -54 0
-18 -54 -15 -51 0
-19 -25 -22 -28 0
-22 -28 -19 -25 0
-19 -25 -23 -29 0
-22 -28 -20 -26 0
-19 -25 -24 -30 0
-22 -28 -21 -27 0
-20 -26 -22 -28 0
-23 -29 -19 -25 0
-20 -26 -23 -29 0
-23 -29 -20 -26 0
-20 -26 -24 -30 0
-23 -29 -21 -27 0
-21 -27 -22 -28 0
-24 -30 -19 -25 0
-21 -27 -23 -29 0
-24 -30 -20 -26 0
-21 -27 -24 -30 0
-24 -30 -21 -27 0
-19 -31 -22 -34 0
-22 -34 -19 -31 0
-19 -31 -23 -35 0
-22 -34 -20 -32 0
-19 -31 -24 -36 0
-22 -34 -21 -33 0
-20 -32 -22 -34 0
-23 -35 -19 -31 0
-20 -32 -23 -35 0
-23 -35 -20 -32 0
-20 -32 -24 -36 0
-23 -35 -21 -33 0
-21 -33 -22 -34 0
-24 -36 -19 -31 0
-21 -33 -23 -35 0
-24 -36 -20 -32 0
-21 -33 -24 -36 0
-24 -36 -21 -33 0
-19 -37 -22 -40 0
-22 -40 -19 -37 0
-19 -37 -23 -41 0
-22 -40 -20 -38 0
-19 -37 -24 -42 0
-22 -40 -21 -39 0
-20 -38 -22 -40 0
-23 -41 -19 -37 0
-20 -38 -23 -41 0
-23 -41 -20 -38 0
-20 -38 -24 -42 0
-23 -41 -21 -39 0
-21 -39 -22 -40 0
-24 -42 -19 -37 0
-21 -39 -23 -41 0
-24 -42 -20 -38 0
-21 -39 -24 -42 0
-24 -42 -21 -39 0
-19 -43 -22 -46 0
-22 -46 -19 -43 0
-19 -43 -23 -47 0
-22 -46 -20 -44 0
-19 -43 -24 -48 0
-22 -46 -21 -45 0
-20 -44 -22 -46 0
-23 -47 -19 -43 0
-20 -44 -23 -47 0
-23 -47 -20 -44 0
-20 -44 -24 -48 0
-23 -47 -21 -45 0
-21 -45 -22 -46 0
-24 -48 -19 -43 0
-21 -45 -23 -47 0
-24 -48 -20 -44 0
-21 -45 -24 -48 0
-24 -48 -21 -45 0
-19 -49 -22 -52 0
-22 -52 -19 -49 0
-19 -49 -23 -53 0
-22 -52 -20 -50 0
-19 -49 -24 -54 0
-22 -52 -21 -51 0
-20 -50 -22 -52 0
-23 -53 -19 -49 0
-20 -50 -23 -53 0
-23 -53 -20 -50 0
-20 -50 -24 -54 0
-23 -53 -21 -51 0
-21 -51 -22 -52 0
-24 -54 -19 -49 0
-21 -51 -23 -53 0
-24 -54 -20 -50 0
-21 -51 -24 -54 0
-24 -54 -21 -51 0
-25 -31 -28 -34 0
-28 -34 -25 -31 0
-25 -31 -29 -35 0
-28 -34 -26 -32 0
-25 -31 -30 -36 0
-28 -34 -27 -33 0
-26 -32 -28 -34 0
-29 -35 -25 -31 0
-26 -32 -29 -35 0
-29 -35 -26 -32 0
-26 -32 -30 -36 0
-29 -35 -27 -33 0
-27 -33 -28 -34 0
-30 -36 -25 -31 0
-27 -33 -29 -35 0
-30 -36 -26 -32 0
-27 -33 -30 -36 0
-30 -36 -27 -33 0
-25 -37 -28 -40 0
-28 -40 -25 -37 0
-25 -37 -29 -41 0
-28 -40 -26 -38 0
-25 -37 -30 -42 0
-28 -40 -27 -39 0
-26 -38 -28 -40 0
-29 -41 -25 -37 0
-26 -38 -29 -41 0
-29 -41 -26 -38 0
-26 -38 -30 -42 0
-29 -41 -27 -39 0
-27 -39 -28 -40 0
-30 -42 -25 -37 0
-27 -39 -29 -41 0
-30 -42 -26 -38 0
-27 -39 -30 -42 0
-30 -42 -27 -39 0
-25 -43 -28 -46 0
-28 -46 -25 -43 0
-25 -43 -29 -47 0
-28 -46 -26 -44 0
-25 -43 -30 -48 0
-28 -46 -27 -45 0
-26 -44 -28 -46 0
-29 -47 -25 -43 0
-26 -44 -29 -47 0
-29 -47 -26 -44 0
-26 -44 -30 -48 0
-29 -47 -27 -45 0
-27 -45 -28 -46 0
-30 -48 -25 -43 0
-27 -45 -29 -47 0
-30 -48 -26 -44 0
-27 -45 -30 -48 0
-30 -48 -27 -45 0
-25 -49 -28 -52 0
-28 -52 -25 -49 0
-25 -49 -29 -53 0
-28 -52 -26 -50 0
-25 -49 -30 -54 0
-28 -52 -27 -51 0
-26 -50 -28 -52 0
-29 -53 -25 -49 0
-26 -50 -29 -53 0
-29 -53 -26 -50 0
-26 -50 -30 -54 0
-29 -53 -27 -51 0
-27 -51 -28 -52 0
-30 -54 -25 -49 0
-27 -51 -29 -53 0
-30 -54 -26 -50 0
-27 -51 -30 -54 0
-30 -54 -27 -51 0
-31 -37 -34 -40 0
-34 -40 -31 -37 0
-31 -37 -35 -41 0
-34 -40 -32 -38 0
-31 -37 -36 -42 0
-34 -40 -33 -39 0
-32 -38 -34 -40 0
-35 -41 -31 -37 0
-32 -38 -35 -41 0
-35 -41 -32 -38 0
-32 -38 -36 -42 0
-35 -41 -33 -39 0
-33 -39 -34 -40 0
-36 -42 -31 -37 0
-33 -39 -35 -41 0
-36 -42 -32 -38 0
-33 -39 -36 -42 0
-36 -42 -33 -39 0
-31 -43 -34 -46 0
-34 -46 -31 -43 0
-31 -43 -35 -47 0
-34 -46 -32 -44 0
-31 -43 -36 -48 0
-34 -46 -33 -45 0
-32 -44 -34 -46 0
-35 -47 -31 -43 0
-32 -44 -35 -47 0
-35 -47 -32 -44 0
-32 -44 -36 -48 0
-35 -47 -33 -45 0
-33 -45 -34 -46 0
-36 -48 -31 -43 0
-33 -45 -35 -47 0
-36 -48 -32 -44 0
-33 -45 -36 -48 0
-36 -48 -33 -45 0
-31 -49 -34 -52 0
-34 -52 -31 -49 0
-31 -49 -35 -53 0
-34 -52 -32 -50 0
-31 -49 -36 -54 0
-34 -52 -33 -51 0
-32 -50 -34 -52 0
-35 -53 -31 -49 0
-32 -50 -35 -53 0
-35 -53 -32 -50 0
-32 -50 -36 -54 0
-35 -53 -33 -51 0
-33 -51 -34 -52 0
-36 -54 -31 -49 0
-33 -51 -35 -53 0
-36 -54 -32 -50 0
-33 -51 -36 -54 0
-36 -54 -33 -51 0
-37 -43 -40 -46 0
-40 -46 -37 -43 0
-37 -43 -41 -47 0
-40 -46 -38 -44 0
-37 -43 -42 -48 0
-40 -46 -39 -45 0
-38 -44 -40 -46 0
-41 -47 -37 -43 0
-38 -44 -41 -47 0
-41 -47 -38 -44 0
-38 -44 -42 -48 0
-41 -47 -39 -45 0
-39 -45 -40 -46 0
-42 -48 -37 -43 0
-39 -45 -41 -47 0
-42 -48 -38 -44 0
-39 -45 -42 -48 0
-42 -48 -39 -45 0
-37 -49 -40 -52 0
-40 -52 -37 -49 0
-37 -49 -41 -53 0
-40 -52 -38 -50 0
-37 -49 -42 -54 0
-40 -52 -39 -51 0
-38 -50 -40 -52 0
-41 -53 -37 -49 0
-38 -50 -41 -53 0
-41 -53 -38 -50 0
-38 -50 -42 -54 0
-41 -53 -39 -51 0
-39 -51 -40 -52 0
-42 -54 -37 -49 0
-39 -51 -41 -53 0
-42 -54 -38 -50 0
-39 -51 -42 -54 0
-42 -54 -39 -51 0
-43 -49 -46 -52 0
-46 -52 -43 -49 0
-43 -49 -47 -53 0
-46 -52 -44 -50 0
-43 -49 -48 -54 0
-46 -52 -45 -51 0
-44 -50 -46 -52 0
-47 -53 -43 -49 0
-44 -50 -47 -53 0
-47 -53 -44 -50 0
-44 -50 -48 -54 0
-47 -53 -45 -51 0
-45 -51 -46 -52 0
-48 -54 -43 -49 0
-45 -51 -47 -53 0
-48 -54 -44 -50 0
-45 -51 -48 -54 0
-48 -54 -45 -51 0
23 35 41 6 -4 -1 0
23 35 37 6 -4 -1 0
23 31 41 6 -4 -1 0
23 31 37 6 -4 -1 0
19 35 41 6 -4 -1 0
19 35 37 6 -4 -1 0
19 31 41 6 -4 -1 0
19 31 37 6 -4 -1 0
23 35 41 6 -4 -2 0
23 35 38 6 -4 -2 0
23 32 41 6 -4 -2 0
23 32 38 6 -4 -2 0
20 35 41 6 -4 -2 0
20 35 38 6 -4 -2 0
20 32 41 6 -4 -2 0
20 32 38 6 -4 -2 0
23 35 41 6 -4 -3 0
23 35 39 6 -4 -3 0
23 33 41 6 -4 -3 0
23 33 39 6 -4 -3 0
21 35 41 6 -4 -3 0
21 35 39 6 -4 -3 0
21 33 41 6 -4 -3 0
21 33 39 6 -4 -3 0
24 36 42 6 -5 -1 0
24 36 37 6 -5 -1 0
24 31 42 6 -5 -1 0
24 31 37 6 -5 -1 0
19 36 42 6 -5 -1 0
19 36 37 6 -5 -1 0
19 31 42 6 -5 -1 0
19 31 37 6 -5 -1 0
24 36 42 6 -5 -2 0
24 36 38 6 -5 -2 0
24 32 42 6 -5 -2 0
24 32 38 6 -5 -2 0
20 36 42 6 -5 -2 0
20 36 38 6 -5 -2 0
20 32 42 6 -5 -2 0
20 32 38 6 -5 -2 0
24 36 42 6 -5 -3 0
24 36 39 6 -5 -3 0
24 33 42 6 -5 -3 0
24 33 39 6 -5 -3 0
21 36 42 6 -5 -3 0
21 36 39 6 -5 -3 0
21 33 42 6 -5 -3 0
21 33 39 6 -5 -3 0
20 32 38 1 -1 -4 0
20 32 40 1 -1 -4 0
20 34 38 1 -1 -4 0
20 34 40 1 -1 -4 0
22 32 38 1 -1 -4 0
22 32 40 1 -1 -4 0
22 34 38 1 -1 -4 0
22 34 40 1 -1 -4 0
20 32 38 1 -1 -5 0
20 32 41 1 -1 -5 0
20 35 38 1 -1 -5 0
20 35 41 1 -1 -5 0
23 32 38 1 -1 -5 0
23 32 41 1 -1 -5 0
23 35 38 1 -1 -5 0
23 35 41 1 -1 -5 0
20 32 38 1 -1 -6 0
20 32 42 1 -1 -6 0
20 36 38 1 -1 -6 0
20 36 42 1 -1 -6 0
24 32 38 1 -1 -6 0
24 32 42 1 -1 -6 0
24 36 38 1 -1 -6 0
24 36 42 1 -1 -6 0
21 33 39 1 -2 -4 0
21 33 40 1 -2 -4 0
21 34 39 1 -2 -4 0
21 34 40 1 -2 -4 0
22 33 39 1 -2 -4 0
22 33 40 1 -2 -4 0
22 34 39 1 -2 -4 0
22 34 40 1 -2 -4 0
21 33 39 1 -2 -5 0
21 33 41 1 -2 -5 0
21 35 39 1 -2 -5 0
21 35 41 1 -2 -5 0
23 33 39 1 -2 -5 0
23 33 41 1 -2 -5 0
23 35 39 1 -2 -5 0
23 35 41 1 -2 -5 0
21 33 39 1 -2 -6 0
21 33 42 1 -2 -6 0
21 36 39 1 -2 -6 0
21 36 42 1 -2 -6 0
24 33 39 1 -2 -6 0
24 33 42 1 -2 -6 0
24 36 39 1 -2 -6 0
24 36 42 1 -2 -6 0
22 52 4 -5 -1 0
22 49 4 -5 -1 0
19 52 4 -5 -1 0
19 49 4 -5 -1 0
22 52 4 -5 -2 0
22 50 4 -5 -2 0
20 52 4 -5 -2 0
20 50 4 -5 -2 0
22 52 4 -5 -3 0
22 51 4 -5 -3 0
21 52 4 -5 -3 0
21 51 4 -5 -3 0
23 53 4 -6 -1 0
23 49 4 -6 -1 0
19 53 4 -6 -1 0
19 49 4 -6 -1 0
23 53 4 -6 -2 0
23 50 4 -6 -2 0
20 53 4 -6 -2 0
20 50 4 -6 -2 0
23 53 4 -6 -3 0
23 51 4 -6 -3 0
21 53 4 -6 -3 0
21 51 4 -6 -3 0
1 0
23 35 41 12 -10 -7 0
23 35 37 12 -10 -7 0
23 31 41 12 -10 -7 0
23 31 37 12 -10 -7 0
19 35 41 12 -10 -7 0
19 35 37 12 -10 -7 0
19 31 41 12 -10 -7 0
19 31 37 12 -10 -7 0
23 35 41 12 -10 -8 0
23 35 38 12 -10 -8 0
23 32 41 12 -10 -8 0
23 32 38 12 -10 -8 0
20 35 41 12 -10 -8 0
20 35 38 12 -10 -8 0
20 32 41 12 -10 -8 0
20 32 38 12 -10 -8 0
23 35 41 12 -10 -9 0
23 35 39 12 -10 -9 0
23 33 41 12 -10 -9 0
23 33 39 12 -10 -9 0
21 35 41 12 -10 -9 0
21 35 39 12 -10 -9 0
21 33 41 12 -10 -9 0
21 33 39 12 -10 -9 0
24 36 42 12 -11 -7 0
24 36 37 12 -11 -7 0
24 31 42 12 -11 -7 0
24 31 37 12 -11 -7 0
19 36 42 12 -11 -7 0
19 36 37 12 -11 -7 0
19 31 42 12 -11 -7 0
19 31 37 12 -11 -7 0
24 36 42 12 -11 -8 0
24 36 38 12 -11 -8 0
24 32 42 12 -11 -8 0
24 32 38 12 -11 -8 0
20 36 42 12 -11 -8 0
20 36 38 12 -11 -8 0
20 32 42 12 -11 -8 0
20 32 38 12 -11 -8 0
24 36 42 12 -11 -9 0
24 36 39 12 -11 -9 0
24 33 42 12 -11 -9 0
24 33 39 12 -11 -9 0
21 36 42 12 -11 -9 0
21 36 39 12 -11 -9 0
21 33 42 12 -11 -9 0
21 33 39 12 -11 -9 0
20 32 38 7 -7 -10 0
20 32 40 7 -7 -10 0
20 34 38 7 -7 -10 0
20 34 40 7 -7 -10 0
22 32 38 7 -7 -10 0
22 32 40 7 -7 -10 0
22 34 38 7 -7 -10 0
22 34 40 7 -7 -10 0
20 32 38 7 -7 -11 0
20 32 41 7 -7 -11 0
20 35 38 7 -7 -11 0
20 35 41 7 -7 -11 0
23 32 38 7 -7 -11 0
23 32 41 7 -7 -11 0
23 35 38 7 -7 -11 0
23 35 41 7 -7 -11 0
20 32 38 7 -7 -12 0
20 32 42 7 -7 -12 0
20 36 38 7 -7 -12 0
20 36 42 7 -7 -12 0
24 32 38 7 -7 -12 0
24 32 42 7 -7 -12 0
24 36 38 7 -7 -12 0
24 36 42 7 -7 -12 0
21 33 39 7 -8 -10 0
21 33 40 7 -8 -10 0
21 34 39 7 -8 -10 0
21 34 40 7 -8 -10 0
22 33 39 7 -8 -10 0
22 33 40 7 -8 -10 0
22 34 39 7 -8 -10 0
22 34 40 7 -8 -10 0
21 33 39 7 -8 -11 0
21 33 41 7 -8 -11 0
21 35 39 7 -8 -11 0
21 35 41 7 -8 -11 0
23 33 39 7 -8 -11 0
23 33 41 7 -8 -11 0
23 35 39 7 -8 -11 0
23 35 41 7 -8 -11 0
21 33 39 7 -8 -12 0
21 33 42 7 -8 -12 0
21 36 39 7 -8 -12 0
21 36 42 7 -8 -12 0
24 33 39 7 -8 -12 0
24 33 42 7 -8 -12 0
24 36 39 7 -8 -12 0
24 36 42 7 -8 -12 0
28 40 10 -11 -7 0
28 37 10 -11 -7 0
25 40 10 -11 -7 0
25 37 10 -11 -7 0
28 40 10 -11 -8 0
28 38 10 -11 -8 0
26 40 10 -11 -8 0
26 38 10 -11 -8 0
28 40 10 -11 -9 0
28 39 10 -11 -9 0
27 40 10 -11 -9 0
27 39 10 -11 -9 0
29 41 10 -12 -7 0
29 37 10 -12 -7 0
25 41 10 -12 -7 0
25 37 10 -12 -7 0
29 41 10 -12 -8 0
29 38 10 -12 -8 0
26 41 10 -12 -8 0
26 38 10 -12 -8 0
29 41 10 -12 -9 0
29 39 10 -12 -9 0
27 41 10 -12 -9 0
27 39 10 -12 -9 0
43 7 -8 -10 0
46 7 -8 -10 0
43 7 -8 -11 0
47 7 -8 -11 0
43 7 -8 -12 0
48 7 -8 -12 0
44 7 -9 -10 0
46 7 -9 -10 0
44 7 -9 -11 0
47 7 -9 -11 0
44 7 -9 -12 0
48 7 -9 -12 0
23 35 41 18 -16 -13 0
23 35 37 18 -16 -13 0
23 31 41 18 -16 -13 0
23 31 37 18 -16 -13 0
19 35 41 18 -16 -13 0
19 35 37 18 -16 -13 0
19 31 41 18 -16 -13 0
19 31 37 18 -16 -13 0
23 35 41 18 -16 -14 0
23 35 38 18 -16 -14 0
23 32 41 18 -16 -14 0
23 32 38 18 -16 -14 0
20 35 41 18 -16 -14 0
20 35 38 18 -16 -14 0
20 32 41 18 -16 -14 0
20 32 38 18 -16 -14 0
23 35 41 18 -16 -15 0
23 35 39 18 -16 -15 0
23 33 41 18 -16 -15 0
23 33 39 18 -16 -15 0
21 35 41 18 -16 -15 0
21 35 39 18 -16 -15 0
21 33 41 18 -16 -15 0
21 33 39 18 -16 -15 0
24 36 42 18 -17 -13 0
24 36 37 18 -17 -13 0
24 31 42 18 -17 -13 0
24 31 37 18 -17 -13 0
19 36 42 18 -17 -13 0
19 36 37 18 -17 -13 0
19 31 42 18 -17 -13 0
19 31 37 18 -17 -13 0
24 36 42 18 -17 -14 0
24 36 38 18 -17 -14 0
24 32 42 18 -17 -14 0
24 32 38 18 -17 -14 0
20 36 42 18 -17 -14 0
20 36 38 18 -17 -14 0
20 32 42 18 -17 -14 0
20 32 38 18 -17 -14 0
24 36 42 18 -17 -15 0
24 36 39 18 -17 -15 0
24 33 42 18 -17 -15 0
24 33 39 18 -17 -15 0
21 36 42 18 -17 -15 0
21 36 39 18 -17 -15 0
21 33 42 18 -17 -15 0
21 33 39 18 -17 -15 0
20 32 38 13 -13 -16 0
20 32 40 13 -13 -16 0
20 34 38 13 -13 -16 0
20 34 40 13 -13 -16 0
22 32 38 13 -13 -16 0
22 32 40 13 -13 -16 0
22 34 38 13 -13 -16 0
22 34 40 13 -13 -16 0
20 32 38 13 -13 -17 0
20 32 41 13 -13 -17 0
20 35 38 13 -13 -17 0
20 35 41 13 -13 -17 0
23 32 38 13 -13 -17 0
23 32 41 13 -13 -17 0
23 35 38 13 -13 -17 0
23 35 41 13 -13 -17 0
20 32 38 13 -13 -18 0
20 32 42 13 -13 -18 0
20 36 38 13 -13 -18 0
20 36 42 13 -13 -18 0
24 32 38 13 -13 -18 0
24 32 42 13 -13 -18 0
24 36 38 13 -13 -18 0
24 36 42 13 -13 -18 0
21 33 39 13 -14 -16 0
21 33 40 13 -14 -16 0
21 34 39 13 -14 -16 0
21 34 40 13 -14 -16 0
22 33 39 13 -14 -16 0
22 33 40 13 -14 -16 0
22 34 39 13 -14 -16 0
22 34 40 13 -14 -16 0
21 33 39 13 -14 -17 0
21 33 41 13 -14 -17 0
21 35 39 13 -14 -17 0
21 35 41 13 -14 -17 0
23 33 39 13 -14 -17 0
23 33 41 13 -14 -17 0
23 35 39 13 -14 -17 0
23 35 41 13 -14 -17 0
21 33 39 13 -14 -18 0
21 33 42 13 -14 -18 0
21 36 39 13 -14 -18 0
21 36 42 13 -14 -18 0
24 33 39 13 -14 -18 0
24 33 42 13 -14 -18 0
24 36 39 13 -14 -18 0
24 36 42 13 -14 -18 0
16 0
49 13 -14 -16 0
52 13 -14 -16 0
49 13 -14 -17 0
53 13 -14 -17 0
49 13 -14 -18 0
54 13 -14 -18 0
50 13 -15 -16 0
52 13 -15 -16 0
50 13 -15 -17 0
53 13 -15 -17 0
50 13 -15 -18 0
54 13 -15 -18 0
5 29 24 -22 -19 0
5 25 24 -22 -19 0
1 29 24 -22 -19 0
1 25 24 -22 -19 0
5 29 24 -22 -20 0
5 26 24 -22 -20 0
2 29 24 -22 -20 0
2 26 24 -22 -20 0
5 29 24 -22 -21 0
5 27 24 -22 -21 0
3 29 24 -22 -21 0
3 27 24 -22 -21 0
6 30 24 -23 -19 0
6 25 24 -23 -19 0
1 30 24 -23 -19 0
1 25 24 -23 -19 0
6 30 24 -23 -20 0
6 26 24 -23 -20 0
2 30 24 -23 -20 0
2 26 24 -23 -20 0
6 30 24 -23 -21 0
6 27 24 -23 -21 0
3 30 24 -23 -21 0
3 27 24 -23 -21 0
21 0
4 10 16 22 -23 -19 0
4 10 13 22 -23 -19 0
4 7 16 22 -23 -19 0
4 7 13 22 -23 -19 0
1 10 16 22 -23 -19 0
1 10 13 22 -23 -19 0
1 7 16 22 -23 -19 0
1 7 13 22 -23 -19 0
4 10 16 22 -23 -20 0
4 10 14 22 -23 -20 0
4 8 16 22 -23 -20 0
4 8 14 22 -23 -20 0
2 10 16 22 -23 -20 0
2 10 14 22 -23 -20 0
2 8 16 22 -23 -20 0
2 8 14 22 -23 -20 0
4 10 16 22 -23 -21 0
4 10 15 22 -23 -21 0
4 9 16 22 -23 -21 0
4 9 15 22 -23 -21 0
3 10 16 22 -23 -21 0
3 10 15 22 -23 -21 0
3 9 16 22 -23 -21 0
3 9 15 22 -23 -21 0
5 11 17 22 -24 -19 0
5 11 13 22 -24 -19 0
5 7 17 22 -24 -19 0
5 7 13 22 -24 -19 0
1 11 17 22 -24 -19 0
1 11 13 22 -24 -19 0
1 7 17 22 -24 -19 0
1 7 13 22 -24 -19 0
5 11 17 22 -24 -20 0
5 11 14 22 -24 -20 0
5 8 17 22 -24 -20 0
5 8 14 22 -24 -20 0
2 11 17 22 -24 -20 0
2 11 14 22 -24 -20 0
2 8 17 22 -24 -20 0
2 8 14 22 -24 -20 0
5 11 17 22 -24 -21 0
5 11 15 22 -24 -21 0
5 9 17 22 -24 -21 0
5 9 15 22 -24 -21 0
3 11 17 22 -24 -21 0
3 11 15 22 -24 -21 0
3 9 17 22 -24 -21 0
3 9 15 22 -24 -21 0
1 7 13 19 -20 -22 0
1 7 16 19 -20 -22 0
1 10 13 19 -20 -22 0
1 10 16 19 -20 -22 0
4 7 13 19 -20 -22 0
4 7 16 19 -20 -22 0
4 10 13 19 -20 -22 0
4 10 16 19 -20 -22 0
1 7 13 19 -20 -23 0
1 7 17 19 -20 -23 0
1 11 13 19 -20 -23 0
1 11 17 19 -20 -23 0
5 7 13 19 -20 -23 0
5 7 17 19 -20 -23 0
5 11 13 19 -20 -23 0
5 11 17 19 -20 -23 0
1 7 13 19 -20 -24 0
1 7 18 19 -20 -24 0
1 12 13 19 -20 -24 0
1 12 18 19 -20 -24 0
6 7 13 19 -20 -24 0
6 7 18 19 -20 -24 0
6 12 13 19 -20 -24 0
6 12 18 19 -20 -24 0
2 8 14 19 -21 -22 0
2 8 16 19 -21 -22 0
2 10 14 19 -21 -22 0
2 10 16 19 -21 -22 0
4 8 14 19 -21 -22 0
4 8 16 19 -21 -22 0
4 10 14 19 -21 -22 0
4 10 16 19 -21 -22 0
2 8 14 19 -21 -23 0
2 8 17 19 -21 -23 0
2 11 14 19 -21 -23 0
2 11 17 19 -21 -23 0
5 8 14 19 -21 -23 0
5 8 17 19 -21 -23 0
5 11 14 19 -21 -23 0
5 11 17 19 -21 -23 0
2 8 14 19 -21 -24 0
2 8 18 19 -21 -24 0
2 12 14 19 -21 -24 0
2 12 18 19 -21 -24 0
6 8 14 19 -21 -24 0
6 8 18 19 -21 -24 0
6 12 14 19 -21 -24 0
6 12 18 19 -21 -24 0
11 30 -28 -25 0
7 30 -28 -25 0
11 30 -28 -26 0
8 30 -28 -26 0
11 30 -28 -27 0
9 30 -28 -27 0
12 30 -29 -25 0
7 30 -29 -25 0
12 30 -29 -26 0
8 30 -29 -26 0
12 30 -29 -27 0
9 30 -29 -27 0
27 0
22 52 28 -29 -25 0
22 49 28 -29 -25 0
19 52 28 -29 -25 0
19 49 28 -29 -25 0
22 52 28 -29 -26 0
22 50 28 -29 -26 0
20 52 28 -29 -26 0
20 50 28 -29 -26 0
22 52 28 -29 -27 0
22 51 28 -29 -27 0
21 52 28 -29 -27 0
21 51 28 -29 -27 0
23 53 28 -30 -25 0
23 49 28 -30 -25 0
19 53 28 -30 -25 0
19 49 28 -30 -25 0
23 53 28 -30 -26 0
23 50 28 -30 -26 0
20 53 28 -30 -26 0
20 50 28 -30 -26 0
23 53 28 -30 -27 0
23 51 28 -30 -27 0
21 53 28 -30 -27 0
21 51 28 -30 -27 0
31 37 25 -26 -28 0
31 40 25 -26 -28 0
34 37 25 -26 -28 0
34 40 25 -26 -28 0
31 37 25 -26 -29 0
31 41 25 -26 -29 0
35 37 25 -26 -29 0
35 41 25 -26 -29 0
31 37 25 -26 -30 0
31 42 25 -26 -30 0
36 37 25 -26 -30 0
36 42 25 -26 -30 0
32 38 25 -27 -28 0
32 40 25 -27 -28 0
34 38 25 -27 -28 0
34 40 25 -27 -28 0
32 38 25 -27 -29 0
32 41 25 -27 -29 0
35 38 25 -27 -29 0
35 41 25 -27 -29 0
32 38 25 -27 -30 0
32 42 25 -27 -30 0
36 38 25 -27 -30 0
36 42 25 -27 -30 0
47 36 -34 -31 0
43 36 -34 -31 0
47 36 -34 -32 0
44 36 -34 -32 0
47 36 -34 -33 0
45 36 -34 -33 0
48 36 -35 -31 0
43 36 -35 -31 0
48 36 -35 -32 0
44 36 -35 -32 0
48 36 -35 -33 0
45 36 -35 -33 0
26 44 31 -31 -34 0
26 46 31 -31 -34 0
28 44 31 -31 -34 0
28 46 31 -31 -34 0
26 44 31 -31 -35 0
26 47 31 -31 -35 0
29 44 31 -31 -35 0
29 47 31 -31 -35 0
26 44 31 -31 -36 0
26 48 31 -31 -36 0
30 44 31 -31 -36 0
30 48 31 -31 -36 0
27 45 31 -32 -34 0
27 46 31 -32 -34 0
28 45 31 -32 -34 0
28 46 31 -32 -34 0
27 45 31 -32 -35 0
27 47 31 -32 -35 0
29 45 31 -32 -35 0
29 47 31 -32 -35 0
27 45 31 -32 -36 0
27 48 31 -32 -36 0
30 45 31 -32 -36 0
30 48 31 -32 -36 0
4 10 16 34 -35 -31 0
4 10 13 34 -35 -31 0
4 7 16 34 -35 -31 0
4 7 13 34 -35 -31 0
1 10 16 34 -35 -31 0
1 10 13 34 -35 -31 0
1 7 16 34 -35 -31 0
1 7 13 34 -35 -31 0
4 10 16 34 -35 -32 0
4 10 14 34 -35 -32 0
4 8 16 34 -35 -32 0
4 8 14 34 -35 -32 0
2 10 16 34 -35 -32 0
2 10 14 34 -35 -32 0
2 8 16 34 -35 -32 0
2 8 14 34 -35 -32 0
4 10 16 34 -35 -33 0
4 10 15 34 -35 -33 0
4 9 16 34 -35 -33 0
4 9 15 34 -35 -33 0
3 10 16 34 -35 -33 0
3 10 15 34 -35 -33 0
3 9 16 34 -35 -33 0
3 9 15 34 -35 -33 0
5 11 17 34 -36 -31 0
5 11 13 34 -36 -31 0
5 7 17 34 -36 -31 0
5 7 13 34 -36 -31 0
1 11 17 34 -36 -31 0
1 11 13 34 -36 -31 0
1 7 17 34 -36 -31 0
1 7 13 34 -36 -31 0
5 11 17 34 -36 -32 0
5 11 14 34 -36 -32 0
5 8 17 34 -36 -32 0
5 8 14 34 -36 -32 0
2 11 17 34 -36 -32 0
2 11 14 34 -36 -32 0
2 8 17 34 -36 -32 0
2 8 14 34 -36 -32 0
5 11 17 34 -36 -33 0
5 11 15 34 -36 -33 0
5 9 17 34 -36 -33 0
5 9 15 34 -36 -33 0
3 11 17 34 -36 -33 0
3 11 15 34 -36 -33 0
3 9 17 34 -36 -33 0
3 9 15 34 -36 -33 0
1 7 13 31 -32 -34 0
1 7 16 31 -32 -34 0
1 10 13 31 -32 -34 0
1 10 16 31 -32 -34 0
4 7 13 31 -32 -34 0
4 7 16 31 -32 -34 0
4 10 13 31 -32 -34 0
4 10 16 31 -32 -34 0
1 7 13 31 -32 -35 0
1 7 17 31 -32 -35 0
1 11 13 31 -32 -35 0
1 11 17 31 -32 -35 0
5 7 13 31 -32 -35 0
5 7 17 31 -32 -35 0
5 11 13 31 -32 -35 0
5 11 17 31 -32 -35 0
1 7 13 31 -32 -36 0
1 7 18 31 -32 -36 0
1 12 13 31 -32 -36 0
1 12 18 31 -32 -36 0
6 7 13 31 -32 -36 0
6 7 18 31 -32 -36 0
6 12 13 31 -32 -36 0
6 12 18 31 -32 -36 0
2 8 14 31 -33 -34 0
2 8 16 31 -33 -34 0
2 10 14 31 -33 -34 0
2 10 16 31 -33 -34 0
4 8 14 31 -33 -34 0
4 8 16 31 -33 -34 0
4 10 14 31 -33 -34 0
4 10 16 31 -33 -34 0
2 8 14 31 -33 -35 0
2 8 17 31 -33 -35 0
2 11 14 31 -33 -35 0
2 11 17 31 -33 -35 0
5 8 14 31 -33 -35 0
5 8 17 31 -33 -35 0
5 11 14 31 -33 -35 0
5 11 17 31 -33 -35 0
2 8 14 31 -33 -36 0
2 8 18 31 -33 -36 0
2 12 14 31 -33 -36 0
2 12 18 31 -33 -36 0
6 8 14 31 -33 -36 0
6 8 18 31 -33 -36 0
6 12 14 31 -33 -36 0
6 12 18 31 -33 -36 0
11 42 -40 -37 0
7 42 -40 -37 0
11 42 -40 -38 0
8 42 -40 -38 0
11 42 -40 -39 0
9 42 -40 -39 0
12 42 -41 -37 0
7 42 -41 -37 0
12 42 -41 -38 0
8 42 -41 -38 0
12 42 -41 -39 0
9 42 -41 -39 0
26 44 37 -37 -40 0
26 46 37 -37 -40 0
28 44 37 -37 -40 0
28 46 37 -37 -40 0
26 44 37 -37 -41 0
26 47 37 -37 -41 0
29 44 37 -37 -41 0
29 47 37 -37 -41 0
26 44 37 -37 -42 0
26 48 37 -37 -42 0
30 44 37 -37 -42 0
30 48 37 -37 -42 0
27 45 37 -38 -40 0
27 46 37 -38 -40 0
28 45 37 -38 -40 0
28 46 37 -38 -40 0
27 45 37 -38 -41 0
27 47 37 -38 -41 0
29 45 37 -38 -41 0
29 47 37 -38 -41 0
27 45 37 -38 -42 0
27 48 37 -38 -42 0
30 45 37 -38 -42 0
30 48 37 -38 -42 0
4 10 16 40 -41 -37 0
4 10 13 40 -41 -37 0
4 7 16 40 -41 -37 0
4 7 13 40 -41 -37 0
1 10 16 40 -41 -37 0
1 10 13 40 -41 -37 0
1 7 16 40 -41 -37 0
1 7 13 40 -41 -37 0
4 10 16 40 -41 -38 0
4 10 14 40 -41 -38 0
4 8 16 40 -41 -38 0
4 8 14 40 -41 -38 0
2 10 16 40 -41 -38 0
2 10 14 40 -41 -38 0
2 8 16 40 -41 -38 0
2 8 14 40 -41 -38 0
4 10 16 40 -41 -39 0
4 10 15 40 -41 -39 0
4 9 16 40 -41 -39 0
4 9 15 40 -41 -39 0
3 10 16 40 -41 -39 0
3 10 15 40 -41 -39 0
3 9 16 40 -41 -39 0
3 9 15 40 -41 -39 0
5 11 17 40 -42 -37 0
5 11 13 40 -42 -37 0
5 7 17 40 -42 -37 0
5 7 13 40 -42 -37 0
1 11 17 40 -42 -37 0
1 11 13 40 -42 -37 0
1 7 17 40 -42 -37 0
1 7 13 40 -42 -37 0
5 11 17 40 -42 -38 0
5 11 14 40 -42 -38 0
5 8 17 40 -42 -38 0
5 8 14 40 -42 -38 0
2 11 17 40 -42 -38 0
2 11 14 40 -42 -38 0
2 8 17 40 -42 -38 0
2 8 14 40 -42 -38 0
5 11 17 40 -42 -39 0
5 11 15 40 -42 -39 0
5 9 17 40 -42 -39 0
5 9 15 40 -42 -39 0
3 11 17 40 -42 -39 0
3 11 15 40 -42 -39 0
3 9 17 40 -42 -39 0
3 9 15 40 -42 -39 0
1 7 13 37 -38 -40 0
1 7 16 37 -38 -40 0
1 10 13 37 -38 -40 0
1 10 16 37 -38 -40 0
4 7 13 37 -38 -40 0
4 7 16 37 -38 -40 0
4 10 13 37 -38 -40 0
4 10 16 37 -38 -40 0
1 7 13 37 -38 -41 0
1 7 17 37 -38 -41 0
1 11 13 37 -38 -41 0
1 11 17 37 -38 -41 0
5 7 13 37 -38 -41 0
5 7 17 37 -38 -41 0
5 11 13 37 -38 -41 0
5 11 17 37 -38 -41 0
1 7 13 37 -38 -42 0
1 7 18 37 -38 -42 0
1 12 13 37 -38 -42 0
1 12 18 37 -38 -42 0
6 7 13 37 -38 -42 0
6 7 18 37 -38 -42 0
6 12 13 37 -38 -42 0
6 12 18 37 -38 -42 0
2 8 14 37 -39 -40 0
2 8 16 37 -39 -40 0
2 10 14 37 -39 -40 0
2 10 16 37 -39 -40 0
4 8 14 37 -39 -40 0
4 8 16 37 -39 -40 0
4 10 14 37 -39 -40 0
4 10 16 37 -39 -40 0
2 8 14 37 -39 -41 0
2 8 17 37 -39 -41 0
2 11 14 37 -39 -41 0
2 11 17 37 -39 -41 0
5 8 14 37 -39 -41 0
5 8 17 37 -39 -41 0
5 11 14 37 -39 -41 0
5 11 17 37 -39 -41 0
2 8 14 37 -39 -42 0
2 8 18 37 -39 -42 0
2 12 14 37 -39 -42 0
2 12 18 37 -39 -42 0
6 8 14 37 -39 -42 0
6 8 18 37 -39 -42 0
6 12 14 37 -39 -42 0
6 12 18 37 -39 -42 0
48 0
8 50 43 -43 -46 0
8 52 43 -43 -46 0
10 50 43 -43 -46 0
10 52 43 -43 -46 0
8 50 43 -43 -47 0
8 53 43 -43 -47 0
11 50 43 -43 -47 0
11 53 43 -43 -47 0
8 50 43 -43 -48 0
8 54 43 -43 -48 0
12 50 43 -43 -48 0
12 54 43 -43 -48 0
9 51 43 -44 -46 0
9 52 43 -44 -46 0
10 51 43 -44 -46 0
10 52 43 -44 -46 0
9 51 43 -44 -47 0
9 53 43 -44 -47 0
11 51 43 -44 -47 0
11 53 43 -44 -47 0
9 51 43 -44 -48 0
9 54 43 -44 -48 0
12 51 43 -44 -48 0
12 54 43 -44 -48 0
34 46 -47 -43 0
31 46 -47 -43 0
34 46 -47 -44 0
32 46 -47 -44 0
34 46 -47 -45 0
33 46 -47 -45 0
35 46 -48 -43 0
31 46 -48 -43 0
35 46 -48 -44 0
32 46 -48 -44 0
35 46 -48 -45 0
33 46 -48 -45 0
31 37 43 -44 -46 0
31 40 43 -44 -46 0
34 37 43 -44 -46 0
34 40 43 -44 -46 0
31 37 43 -44 -47 0
31 41 43 -44 -47 0
35 37 43 -44 -47 0
35 41 43 -44 -47 0
31 37 43 -44 -48 0
31 42 43 -44 -48 0
36 37 43 -44 -48 0
36 42 43 -44 -48 0
32 38 43 -45 -46 0
32 40 43 -45 -46 0
34 38 43 -45 -46 0
34 40 43 -45 -46 0
32 38 43 -45 -47 0
32 41 43 -45 -47 0
35 38 43 -45 -47 0
35 41 43 -45 -47 0
32 38 43 -45 -48 0
32 42 43 -45 -48 0
36 38 43 -45 -48 0
36 42 43 -45 -48 0
5 29 54 -52 -49 0
5 25 54 -52 -49 0
1 29 54 -52 -49 0
1 25 54 -52 -49 0
5 29 54 -52 -50 0
5 26 54 -52 -50 0
2 29 54 -52 -50 0
2 26 54 -52 -50 0
5 29 54 -52 -51 0
5 27 54 -52 -51 0
3 29 54 -52 -51 0
3 27 54 -52 -51 0
6 30 54 -53 -49 0
6 25 54 -53 -49 0
1 30 54 -53 -49 0
1 25 54 -53 -49 0
6 30 54 -53 -50 0
6 26 54 -53 -50 0
2 30 54 -53 -50 0
2 26 54 -53 -50 0
6 30 54 -53 -51 0
6 27 54 -53 -51 0
3 30 54 -53 -51 0
3 27 54 -53 -51 0
14 49 -49 -52 0
16 49 -49 -52 0
14 49 -49 -53 0
17 49 -49 -53 0
14 49 -49 -54 0
18 49 -49 -54 0
15 49 -50 -52 0
16 49 -50 -52 0
15 49 -50 -53 0
17 49 -50 -53 0
15 49 -50 -54 0
18 49 -50 -54 0
52 0
43 49 -50 -52 0
46 49 -50 -52 0
43 49 -50 -53 0
47 49 -50 -53 0
43 49 -50 -54 0
48 49 -50 -54 0
44 49 -51 -52 0
46 49 -51 -52 0
44 49 -51 -53 0
47 49 -51 -53 0
44 49 -51 -54 0
48 49 -51 -54 0
