dimacs/3x3_1.output
c SAT4J: a SATisfiability library for Java (c) 2004-2013 Artois University and CNRS
c This is free software under the dual EPL/GNU LGPL licenses.
c See www.sat4j.org for details.
c version 2.3.5.WHEEZY
c java.runtime.name	OpenJDK Runtime Environment
c java.vm.name		OpenJDK 64-Bit Server VM
c java.vm.version	11.0.9.1+1-post-Debian-1deb10u2
c java.vm.vendor	Debian
c sun.arch.data.model	64
c java.version		11.0.9.1
c os.name		Linux
c os.version		4.19.0-13-amd64
c os.arch		amd64
c Free memory 		263971344
c Max memory 		4206886912
c Total memory 		266338304
c Number of processors 	4
c --- Begin Solver configuration ---
c org.sat4j.minisat.constraints.MixedDataStructureDanielWL@4d76f3f8
c Learn all clauses as in MiniSAT
c claDecay=0.999 varDecay=0.95 conflictBoundIncFactor=1.5 initConflictBound=100 
c VSIDS like heuristics from MiniSAT using a heap lightweight component caching from RSAT
c Expensive reason simplification
c Glucose 2.1 dynamic restart strategy
c Glucose 2 learned constraints deletion strategy
c timeout=2147483647s
c DB Simplification allowed=true
c Listener: org.sat4j.minisat.core.VoidTracing@6438a396
c --- End Solver configuration ---
c solving dimacs/3x3_1.cnf
c reading problem ... 
c ... done. Wall clock time 0.018s.
c declared #vars     54
c #constraints  1385
c constraints type 
c org.sat4j.minisat.constraints.cnf.OriginalBinaryClause => 54
c org.sat4j.minisat.constraints.cnf.OriginalWLClause => 1325
c ignored satisfied constraints => 253
c org.sat4j.minisat.constraints.cnf.UnitClause => 6
c 1638 constraints processed.
c starts		: 1
c conflicts		: 1
c decisions		: 4
c propagations		: 58
c inspects		: 981
c shortcuts		: 0
c learnt literals	: 0
c learnt binary clauses	: 1
c learnt ternary clauses	: 0
c learnt constraints	: 1
c ignored constraints	: 0
c root simplifications	: 1
c removed literals (reason simplification)	: 0
c reason swapping (by a shorter reason)	: 0
c Calls to reduceDB	: 0
c Number of update (reduction) of LBD	: 0
c Imported unit clauses	: 0
c speed (assignments/second)	: 19333.333333333332
c non guided choices	3
c learnt constraints type 
c org.sat4j.minisat.constraints.cnf.LearntBinaryClause => 1
c constraints type 
c org.sat4j.minisat.constraints.cnf.OriginalBinaryClause => 54
c org.sat4j.minisat.constraints.cnf.OriginalWLClause => 1325
c ignored satisfied constraints => 253
c org.sat4j.minisat.constraints.cnf.UnitClause => 6
c 1638 constraints processed.
s SATISFIABLE
v 1 -2 -3 -4 5 -6 -7 -8 9 -10 -11 12 -13 14 -15 16 -17 -18 -19 -20 21 22 -23 -24 -25 -26 27 -28 29 -30 -31 32 -33 -34 35 -36 37 -38 -39 -40 -41 42 -43 44 -45 -46 -47 48 49 -50 -51 52 -53 -54 0
c Total wall clock time (in seconds) : 0.024
